nNurses = 164;
nHours = 32;
minHours = 5;
maxHours = 13;
maxConsec = 10;
maxPresence = 18;
demand = [14, 14, 10, 8, 9, 14, 9, 5, 10, 10, 9, 13, 15, 14, 10, 9, 9, 9, 10, 10, 6, 7, 6, 11, 11, 10, 8, 6, 6, 10, 7, 12];
